unsat
(forall ((A (_ BitVec 1))
         (B (_ BitVec 1))
         (C (_ BitVec 1))
         (D (_ BitVec 1))
         (E (_ BitVec 1))
         (F (_ BitVec 1))
         (G (_ BitVec 1))
         (H (_ BitVec 32))
         (I (_ BitVec 32))
         (J (_ BitVec 1))
         (K (_ BitVec 1))
         (L (_ BitVec 22))
         (M (_ BitVec 32))
         (N (_ BitVec 1))
         (O (_ BitVec 1))
         (P (_ BitVec 1))
         (Q (_ BitVec 1))
         (R (_ BitVec 36))
         (S (_ BitVec 1))
         (T (_ BitVec 4))
         (U (_ BitVec 1))
         (V (_ BitVec 1))
         (W (_ BitVec 1))
         (X (_ BitVec 1))
         (Y (_ BitVec 1))
         (Z (_ BitVec 2))
         (A1 (_ BitVec 2))
         (B1 (_ BitVec 1))
         (C1 (_ BitVec 1))
         (D1 (_ BitVec 2))
         (E1 (_ BitVec 1))
         (F1 (_ BitVec 1))
         (G1 (_ BitVec 5))
         (H1 (_ BitVec 1))
         (I1 (_ BitVec 1))
         (J1 (_ BitVec 1))
         (K1 (_ BitVec 1))
         (L1 (_ BitVec 3))
         (M1 (_ BitVec 1))
         (N1 (_ BitVec 1))
         (O1 (_ BitVec 4))
         (P1 (_ BitVec 1))
         (Q1 (_ BitVec 1))
         (R1 (_ BitVec 1))
         (S1 (_ BitVec 22))
         (T1 (_ BitVec 1))
         (U1 (_ BitVec 1))
         (V1 (_ BitVec 32))
         (W1 (_ BitVec 1))
         (X1 (_ BitVec 4))
         (Y1 (_ BitVec 1))
         (Z1 (_ BitVec 22))
         (A2 (_ BitVec 1)))
  (! (let ((a!1 (or (= L1 #b000)
                    (not (= E1 #b1))
                    (not (= ((_ extract 0 0) G1) #b1))
                    (not (= O #b0))
                    (not (= F1 #b0))))
           (a!2 (or (= S #b0)
                    (not (= ((_ extract 0 0) G1) #b1))
                    (= F1 #b1)
                    (not (= U #b1))))
           (a!3 (or (not (= ((_ extract 0 0) G1) #b0))
                    (not (= ((_ extract 2 2) G1) #b0))
                    (not (= ((_ extract 3 3) G1) #b0))
                    (not (= ((_ extract 4 4) G1) #b0))
                    (not (= ((_ extract 1 1) G1) #b0))))
           (a!6 (or (= J1 #b0)
                    (not (= O #b0))
                    ((_ bit2bool 2) G1)
                    ((_ bit2bool 3) G1)
                    (not (= ((_ extract 1 1) L1) #b1))
                    (not (= N #b0))))
           (a!7 (or (= J1 #b0)
                    (not (= O #b0))
                    (= F1 #b1)
                    ((_ bit2bool 3) G1)
                    (not (= ((_ extract 0 0) L1) #b1)))))
     (let ((a!4 (ite (or (= U #b0) (not a!3))
                     (= ((_ extract 3 3) G1) #b1)
                     (= ((_ extract 3 3) (bvadd #b11111 G1)) #b1))))
     (let ((a!5 (or (not (= L1 #b001))
                    (ite (or (= U #b0) (= F1 #b0))
                         (= F1 #b1)
                         (= ((_ extract 4 1) G1) #x0))
                    a!4)))
     (let ((a!8 (and (or (not (= L1 #b001)) (not (= J #b0)))
                     (or (= U #b0) (not (= P #b1)))
                     (or (= G1 #b00000) (not (= P #b1)))
                     (or (not (= F1 #b0)) (not (= G1 #b00000)))
                     (or ((_ bit2bool 0) V)
                         (not ((_ bit2bool 0) E1))
                         ((_ bit2bool 0) F1)
                         (= J1 #b1))
                     (or (not ((_ bit2bool 0) E1))
                         (= C1 #b1)
                         ((_ bit2bool 0) F1)
                         (= J1 #b1))
                     (or (= A1 #b00)
                         (not (= K1 #b0))
                         (not (= H1 #b1))
                         (not (= I1 #b0)))
                     (or (= L1 #b000) (not (= U #b1)))
                     (or (not ((_ bit2bool 0) N)) (not (= K #b1)))
                     (or (not (= K #b1))
                         ((_ bit2bool 3) G1)
                         ((_ bit2bool 0) O)
                         (not (= F1 #b0)))
                     (or (= S #b0) (not (= N #b1)) (= F1 #b1) (not (= U #b1)))
                     (or ((_ bit2bool 0) C1) (not (= K #b1)))
                     a!1
                     (or (= S #b0)
                         (not (= N #b1))
                         (not (= L1 #b001))
                         (= F1 #b1))
                     (or (not (= N #b1))
                         (not (= E1 #b1))
                         (not (= L1 #b001))
                         (not (= F1 #b0)))
                     (or (= U #b0)
                         (not (= E1 #b1))
                         (not (= H1 #b1))
                         (not (= F1 #b0)))
                     (or (not (= E1 #b1))
                         (not (= L1 #b001))
                         (= J1 #b1)
                         (not (= F1 #b0)))
                     (or (not (= K #b1)) (not (= H1 #b1)))
                     a!2
                     (or (not (= K #b1)) (not (= V #b0)))
                     (or (not (= L1 #b010)) (= F1 #b1) ((_ bit2bool 3) G1))
                     a!5
                     (or (= U #b0) (= F1 #b1) ((_ bit2bool 3) G1))
                     (or (not ((_ bit2bool 0) L1))
                         (not (= W #b0))
                         (not ((_ bit2bool 1) L1)))
                     (or (not (= N #b1)) (not (= L1 #b010)) (= F1 #b1))
                     (or (not (= H1 #b1)) (not (= L1 #b010)) (not (= F1 #b0)))
                     (or (not (= L1 #b001))
                         (not (= H1 #b1))
                         (= F1 #b1)
                         ((_ bit2bool 0) B1))
                     (or (not (= H1 #b1))
                         (= F1 #b1)
                         ((_ bit2bool 0) B1)
                         (not (= U #b1)))
                     (or (not (= C1 #b0)) (not (= L1 #b010)) (= F1 #b1))
                     (or (not (= L1 #b010)) (= F1 #b1) (= J1 #b1))
                     (or (not (= C1 #b0))
                         (not (= L1 #b001))
                         (= F1 #b1)
                         (= J1 #b1))
                     (or ((_ bit2bool 0) O) (= S #b0) (= F1 #b1) (= J1 #b1))
                     (or (not (= L1 #b001)) (= O #b1) (= F1 #b1) (= J1 #b1))
                     (or (not (= C1 #b0)) (= F1 #b1) (= J1 #b1) (not (= U #b1)))
                     (or (not (= N #b1))
                         (not (= L1 #b001))
                         (= J1 #b1)
                         (not (= F1 #b0)))
                     (or (= S #b0)
                         (= F1 #b1)
                         (= J1 #b1)
                         (= ((_ extract 2 2) L1) #b1))
                     (or (not (= L1 #b001))
                         (not (= V #b0))
                         (= F1 #b1)
                         (= J1 #b1))
                     (or (not (= N #b1)) (= F1 #b1) (= J1 #b1) (not (= U #b1)))
                     (or (not (= R1 #b1))
                         ((_ bit2bool 0) C1)
                         (not (= L1 #b001))
                         ((_ bit2bool 0) I1))
                     (or (not (= L1 #b001))
                         (= J1 #b0)
                         (not (= O #b0))
                         ((_ bit2bool 2) G1)
                         ((_ bit2bool 3) G1)
                         (not (= N #b0)))
                     (or (not (= E1 #b1))
                         (not (= C1 #b0))
                         (not (= L1 #b001))
                         (= F1 #b1))
                     a!6
                     a!7)))
       (= (INV!slice!1 A
                       B
                       C
                       D
                       E
                       F
                       G
                       H
                       I
                       J
                       K
                       L
                       M
                       N
                       O
                       P
                       Q
                       R
                       S
                       T
                       U
                       V
                       W
                       X
                       Y
                       Z
                       A1
                       B1
                       C1
                       D1
                       E1
                       F1
                       G1
                       H1
                       I1
                       J1
                       K1
                       L1
                       M1
                       N1
                       O1
                       P1
                       Q1
                       R1
                       S1
                       T1
                       U1
                       V1
                       W1
                       X1
                       Y1
                       Z1
                       A2)
          a!8)))))
     :weight 0))
